NAME : portcgen-17-14
COMMENT : portcgen N=17, seed=14
TYPE : TSP
DIMENSION : 17
EDGE_WEIGHT_TYPE : EUC_2D
NODE_COORD_SECTION
1 -630454 -265101
2 -357503 436773
3 89580 -147123
4 151630 -110709
5 396816 -152123
6 172341 -173718
7 258106 -65828
8 352210 -62349
9 -54241 -271991
10 -196431 -58977
11 -160438 -72405
12 15915 70990
13 -297207 -80103
14 216304 529812
15 122425 268787
16 109879 102923
17 166098 -405213
